(set-info :smt-lib-version 2.6)
(set-logic QF_S)
(set-info :source |
Generated by: Hung-En Wang, Tzung-Lin Tsai, Chun-Han Lin, Fang Yu, and Jie-Hong R. Jiang
Generated on: 2019-02-28
Generator: Stranger
Application: Security analysis of string manipulating web applications
Target solver: CVC4, Norn, Z3-str2
Publication:
Hung-En Wang, Tzung-Lin Tsai, Chun-Han Lin, Fang Yu, Jie-Hong R. Jiang:
String Analysis via Automata Manipulation with Logic Circuit Representation. CAV (1) 2016: 241-260.
|)
(set-info :license "https://creativecommons.org/licenses/by/4.0/")
(set-info :category "industrial")
(set-info :status unknown)

(declare-fun sigmaStar_0 () String)
(declare-fun sigmaStar_1 () String)
(declare-fun sigmaStar_2 () String)
(declare-fun literal_26 () String)
(declare-fun x_27 () String)
(declare-fun literal_24 () String)
(declare-fun literal_25 () String)
(declare-fun x_30 () String)
(declare-fun literal_31 () String)
(declare-fun x_32 () String)
(declare-fun literal_29 () String)
(declare-fun x_33 () String)
(declare-fun literal_34 () String)
(declare-fun x_35 () String)
(assert (= literal_26 "\u{3c}\u{2f}\u{70}\u{3e}\u{3c}\u{63}\u{65}\u{6e}\u{74}\u{65}\u{72}\u{3e}\u{3c}\u{61}\u{20}\u{68}\u{72}\u{65}\u{66}\u{3d}\u{5c}\u{22}"))
(assert (= literal_24 "\u{2f}\u{66}\u{69}\u{6c}\u{65}\u{2e}\u{70}\u{68}\u{70}\u{2f}\u{2f}\u{62}\u{61}\u{63}\u{6b}\u{75}\u{70}\u{64}\u{61}\u{74}\u{61}\u{2f}\u{65}\u{78}\u{70}\u{6f}\u{72}\u{74}\u{66}\u{69}\u{6c}\u{65}\u{6e}\u{61}\u{6d}\u{65}\u{2f}\u{65}\u{78}\u{70}\u{6f}\u{72}\u{74}\u{66}\u{69}\u{6c}\u{65}\u{6e}\u{61}\u{6d}\u{65}\u{2e}\u{74}\u{78}\u{74}\u{3f}\u{66}\u{6f}\u{72}\u{63}\u{65}\u{64}\u{6f}\u{77}\u{6e}\u{6c}\u{6f}\u{61}\u{64}\u{3d}\u{31}"))
(assert (= literal_25 "\u{2f}\u{66}\u{69}\u{6c}\u{65}\u{2e}\u{70}\u{68}\u{70}\u{3f}\u{66}\u{69}\u{6c}\u{65}\u{3d}\u{2f}\u{2f}\u{62}\u{61}\u{63}\u{6b}\u{75}\u{70}\u{64}\u{61}\u{74}\u{61}\u{2f}\u{65}\u{78}\u{70}\u{6f}\u{72}\u{74}\u{66}\u{69}\u{6c}\u{65}\u{6e}\u{61}\u{6d}\u{65}\u{2f}\u{65}\u{78}\u{70}\u{6f}\u{72}\u{74}\u{66}\u{69}\u{6c}\u{65}\u{6e}\u{61}\u{6d}\u{65}\u{2e}\u{74}\u{78}\u{74}\u{26}\u{66}\u{6f}\u{72}\u{63}\u{65}\u{64}\u{6f}\u{77}\u{6e}\u{6c}\u{6f}\u{61}\u{64}\u{3d}\u{31}"))
(assert (or (= x_27 literal_24) (= x_27 literal_25)))
(assert (= x_30 (str.++ literal_26 x_27)))
(assert (= literal_31 "\u{5c}\u{22}\u{3e}"))
(assert (= x_32 (str.++ x_30 literal_31)))
(assert (= literal_29 "\u{64}\u{6f}\u{77}\u{6e}\u{6c}\u{6f}\u{61}\u{64}"))
(assert (= x_33 (str.++ x_32 literal_29)))
(assert (= literal_34 "\u{3c}\u{2f}\u{61}\u{3e}\u{3c}\u{2f}\u{63}\u{65}\u{6e}\u{74}\u{65}\u{72}\u{3e}\u{3c}\u{2f}\u{70}\u{3e}"))
(assert (= x_35 (str.++ x_33 literal_34)))
(assert (str.in_re x_35 (re.++ (re.* re.allchar) (re.++ (str.to_re "\u{5c}\u{3c}\u{53}\u{43}\u{52}\u{49}\u{50}\u{54}") (re.* re.allchar)))))
(check-sat)
(exit)
